nPeces = 10;

durada = [25,5,20,15,20,35,5,50,10,50];

nInstruments = 3;

requereix = [| 2, 1, 1, 
| 2, 0, 1, 
| 0, 2, 0,
| 0, 1, 1,
| 2, 1, 1,
| 2, 0, 2,
| 1, 2, 1,
| 1, 2, 1,
| 2, 0, 0,
| 2, 0, 1,
|];

nMusics = 8;

saptocar = [| true, true, false
| false, true, true,
| true, true, false, 
| true, false, false,
| true, false, true,
| false, true, false,
| true, false, true,
| true, true, false,
|];

pressupost = 2118;

salari = [3,3,3,2,3,2,3,3];

nPrecs = 11;
pred = [1,1,2,2,3,3,4,5,6,7,7];
succ = [3,4,8,5,6,7,8,9,9,8,10];

